c 66_3_checker_5cl.cnf
c
c field = 66
c formula set type = 3_checker_5cl
c
p cnf 5 6
40 
70 
100 
-11 
-160 
41 
71 
101 
-10 
-161 
34 
66 
98 
-3 
-162 
35 
67 
99 
-2 
-163 
46 
74 
102 
-19 
-158 
47 
75 
103 
-18 
-159 
